Route #1: 2 34 48 40 7 37 9 33 12 27
Route #2: 20 36 43 49 24 16 11 30 44
Route #3: 6 31 14 46 23 38
Route #4: 15 10 35 41 22 13 3
Route #5: 45 39 28 29 32
Route #6: 8 17 42 21 1
Route #7: 19 5
Route #8: 4 18 26 47 25
Cost 1360